language ESSENCE' 1.0

letting n_courses be 123
letting n_periods be 28
letting prerequisite_RelationAsSet_Explicit_1 be
        [1, 1, 1, 1, 1, 1, 1, 2, 2, 2, 2, 2, 3, 3, 3, 3, 3, 3, 3, 3, 4, 4, 4, 4, 4, 4, 4, 5, 5, 5, 5, 5, 5, 5, 5, 5, 5,
         6, 6, 6, 6, 6, 6, 6, 6, 6, 7, 7, 7, 7, 7, 7, 8, 8, 8, 8, 8, 8, 8, 9, 9, 9, 9, 9, 9, 9, 9, 10, 10, 10, 10, 10,
         10, 10, 10, 10, 11, 11, 11, 12, 12, 12, 12, 12, 12, 12, 12, 12, 12, 13, 13, 13, 13, 13, 13, 13, 13, 14, 14, 14,
         14, 14, 14, 14, 15, 15, 15, 15, 15, 15, 15, 15, 16, 16, 16, 16, 16, 16, 16, 17, 17, 17, 17, 17, 17, 17, 17, 17,
         17, 18, 18, 18, 18, 19, 19, 19, 19, 19, 20, 20, 20, 20, 20, 20, 20, 21, 21, 21, 22, 22, 22, 22, 22, 22, 22, 22,
         23, 23, 23, 23, 23, 23, 23, 23, 24, 24, 24, 24, 24, 25, 25, 25, 25, 25, 25, 26, 26, 26, 27, 27, 27, 27, 27, 27,
         28, 28, 28, 28, 28, 28, 28, 28, 28, 29, 29, 29, 29, 29, 29, 29, 29, 30, 30, 30, 30, 30, 31, 31, 31, 31, 31, 32,
         32, 32, 32, 33, 33, 33, 33, 33, 33, 33, 33, 34, 34, 34, 34, 34, 34, 34, 34, 34, 34, 34, 34, 35, 35, 35, 35, 35,
         35, 35, 35, 36, 36, 36, 36, 37, 37, 37, 37, 37, 37, 37, 37, 37, 38, 38, 38, 38, 38, 38, 38, 38, 38, 39, 39, 39,
         39, 39, 39, 39, 40, 40, 40, 40, 40, 40, 40, 40, 40, 40, 40, 40, 41, 41, 41, 42, 42, 42, 42, 43, 43, 43, 43, 43,
         44, 44, 44, 44, 45, 45, 45, 45, 45, 45, 45, 46, 46, 46, 46, 47, 47, 47, 47, 47, 47, 47, 48, 48, 48, 48, 48, 48,
         49, 49, 49, 49, 49, 49, 49, 49, 50, 50, 50, 50, 50, 50, 50, 51, 51, 51, 51, 51, 51, 52, 52, 52, 52, 52, 52, 52,
         52, 52, 52, 52, 52, 53, 53, 53, 53, 53, 53, 54, 54, 54, 54, 54, 55, 55, 55, 55, 55, 55, 55, 55, 55, 56, 56, 56,
         56, 56, 57, 57, 57, 57, 57, 58, 58, 58, 58, 58, 59, 59, 59, 59, 59, 59, 59, 59, 59, 59, 60, 60, 60, 60, 60, 60,
         60, 61, 61, 61, 61, 61, 62, 62, 62, 62, 62, 62, 62, 62, 63, 63, 63, 63, 63, 63, 64, 64, 64, 64, 64, 64, 64, 64,
         64, 64, 64, 65, 65, 65, 65, 65, 65, 66, 66, 66, 66, 66, 66, 66, 66, 66, 67, 67, 67, 67, 67, 67, 68, 68, 68, 68,
         68, 68, 68, 68, 68, 68, 68, 68, 68, 69, 69, 69, 69, 69, 69, 70, 70, 70, 70, 70, 70, 70, 70, 71, 71, 71, 71, 71,
         71, 71, 71, 72, 72, 72, 72, 72, 72, 72, 73, 73, 73, 74, 74, 74, 74, 74, 74, 74, 75, 75, 75, 75, 75, 76, 76, 76,
         76, 76, 76, 76, 76, 76, 77, 77, 77, 77, 77, 77, 77, 77, 77, 78, 78, 78, 78, 79, 79, 79, 79, 79, 79, 79, 79, 80,
         80, 80, 80, 80, 80, 80, 80, 80, 80, 80, 81, 81, 81, 81, 81, 81, 82, 82, 83, 83, 83, 83, 83, 83, 84, 84, 84, 84,
         84; int(1..577)]
letting prerequisite_RelationAsSet_Explicit_2 be
        [45, 47, 53, 60, 63, 64, 83, 59, 73, 76, 80, 83, 53, 55, 56, 61, 68, 70, 75, 84, 49, 54, 59, 65, 69, 71, 73, 49,
         52, 57, 59, 60, 61, 67, 73, 77, 81, 45, 50, 56, 57, 58, 75, 78, 81, 82, 45, 50, 53, 61, 79, 81, 45, 52, 57, 64,
         66, 78, 84, 45, 50, 51, 56, 57, 60, 61, 69, 45, 48, 55, 59, 62, 68, 74, 79, 81, 45, 59, 80, 56, 59, 60, 67, 72,
         74, 78, 80, 83, 84, 44, 52, 60, 64, 68, 80, 81, 83, 44, 58, 67, 74, 78, 81, 82, 51, 52, 53, 54, 61, 70, 75, 76,
         46, 52, 62, 66, 69, 74, 78, 46, 50, 53, 57, 59, 61, 64, 66, 70, 84, 62, 70, 76, 78, 67, 68, 71, 78, 84, 54, 57,
         69, 74, 75, 82, 83, 50, 67, 75, 46, 55, 59, 61, 63, 78, 81, 84, 46, 47, 53, 57, 62, 68, 73, 78, 48, 62, 63, 65,
         80, 52, 62, 63, 68, 71, 77, 46, 56, 66, 53, 54, 57, 69, 74, 77, 46, 53, 62, 63, 64, 67, 69, 70, 84, 49, 50, 57,
         61, 62, 64, 82, 83, 51, 68, 72, 73, 77, 47, 53, 54, 65, 81, 61, 72, 74, 83, 44, 53, 62, 70, 72, 73, 77, 78, 44,
         46, 47, 50, 52, 63, 65, 67, 68, 69, 71, 72, 44, 45, 54, 55, 76, 81, 82, 84, 44, 75, 78, 83, 44, 48, 57, 59, 61,
         67, 77, 78, 79, 44, 50, 52, 55, 56, 57, 62, 69, 71, 49, 53, 54, 56, 67, 70, 78, 46, 47, 48, 50, 54, 59, 64, 72,
         73, 74, 76, 83, 45, 48, 79, 49, 50, 60, 62, 59, 63, 68, 70, 80, 90, 93, 96, 121, 92, 96, 104, 106, 110, 112,
         121, 89, 103, 109, 122, 89, 98, 99, 103, 109, 110, 119, 96, 104, 114, 115, 118, 119, 86, 90, 91, 97, 98, 111,
         117, 118, 86, 87, 95, 105, 107, 117, 120, 85, 86, 100, 102, 114, 120, 99, 100, 103, 105, 109, 110, 111, 112,
         113, 119, 122, 123, 85, 87, 89, 96, 99, 114, 99, 101, 102, 107, 118, 89, 90, 96, 101, 103, 109, 111, 115, 119,
         86, 96, 106, 117, 122, 92, 102, 104, 110, 111, 113, 114, 116, 118, 119, 85, 86, 90, 91, 92, 98, 100, 114, 122,
         123, 91, 93, 96, 100, 105, 120, 123, 88, 91, 103, 106, 109, 88, 92, 96, 97, 103, 104, 106, 113, 86, 87, 90,
         101, 110, 118, 86, 88, 89, 103, 106, 109, 115, 118, 119, 120, 122, 86, 95, 104, 112, 117, 123, 85, 92, 95, 96,
         98, 104, 106, 110, 119, 89, 97, 103, 104, 109, 113, 86, 88, 92, 93, 99, 102, 104, 106, 109, 110, 112, 115, 116,
         87, 94, 98, 108, 114, 122, 88, 89, 94, 98, 99, 107, 108, 116, 86, 92, 94, 97, 99, 111, 112, 123, 87, 93, 94,
         106, 114, 115, 116, 99, 107, 119, 85, 96, 107, 112, 119, 120, 123, 85, 94, 100, 103, 108, 85, 93, 94, 95, 97,
         101, 103, 104, 105, 85, 91, 92, 95, 105, 109, 114, 115, 119, 101, 102, 103, 113, 88, 89, 92, 93, 94, 100, 110,
         117, 86, 87, 90, 96, 97, 106, 107, 116, 117, 121, 122, 91, 98, 100, 103, 118, 122, 88, 119, 85, 93, 96, 103,
         111, 120, 90, 104, 115, 117, 122;
             int(1..577)]
letting course_load_Function1D be
        [7, 5, 3, 8, 7, 5, 9, 8, 4, 3, 8, 4, 5, 6, 7, 9, 6, 8, 6, 4, 5, 5, 4, 6, 6, 8, 6, 3, 5, 4, 5, 9, 5, 8, 3, 3, 5,
         3, 6, 6, 9, 4, 4, 7, 7, 6, 8, 6, 6, 8, 6, 4, 6, 3, 8, 6, 7, 9, 8, 3, 5, 3, 3, 4, 5, 7, 4, 7, 8, 3, 9, 3, 9, 5,
         8, 3, 4, 5, 5, 3, 3, 5, 8, 7, 3, 3, 8, 4, 7, 3, 4, 4, 5, 7, 4, 4, 4, 4, 4, 7, 8, 6, 8, 9, 9, 7, 7, 5, 3, 8, 4,
         7, 3, 7, 3, 5, 7, 4, 8, 9, 5, 8, 4;
             int(1..123)]
letting load_per_period_ub be 36
letting load_per_period_lb be 5
letting courses_per_period_ub be 7
letting courses_per_period_lb be 4
letting fin1 be 577
letting fin2 be 123
letting fin3 be 9
